(set-info :smt-lib-version 2.6)
(set-logic QF_SLIA)
(set-info :source |
Generated by: Dmitry Blotsky1, Federico Mora, Murphy Berzish, Yunhui Zheng, Ifaz Kabir, Vijay Ganesh, Zhengyang Lu
Generated on: 2018-01-24
Generator: StringFuzz
Application: Evaluate string solvers
Target solver: Z3str3, CVC4, Z3str2, Norn
Publications: Blotsky, D., Mora, F., Berzish, M., Zheng, Y., Kabir, I., & Ganesh, V. (2018). Stringfuzz: A fuzzer for string solvers. In CAV 2018.
Description: new instance generated by StringFuzz, a modular string and regex fuzzer
|)
(set-info :license "https://creativecommons.org/licenses/by/4.0/")
(set-info :category "random")
(set-info :status unknown)

(declare-fun var0 () String)
(assert (str.in_re var0 (re.++ (re.union (re.union (str.to_re "00") (str.to_re "111")) (re.+ (str.to_re "2"))) (re.++ (re.union (re.+ (str.to_re "3")) (re.+ (str.to_re "44"))) (re.++ (re.* (re.* (str.to_re "555"))) (re.++ (re.union (re.+ (str.to_re "666")) (re.+ (str.to_re "7"))) (re.++ (re.union (re.union (str.to_re "88") (str.to_re "9")) (re.+ (str.to_re "aa"))) (re.++ (re.+ (re.union (str.to_re "bb") (str.to_re "cc"))) (re.++ (re.* (re.+ (str.to_re "d"))) (re.++ (re.union (re.union (str.to_re "e") (str.to_re "fff")) (re.+ (str.to_re "gg"))) (re.++ (re.union (re.+ (str.to_re "hhh")) (re.union (str.to_re "iii") (str.to_re "jjj"))) (re.++ (re.* (re.union (str.to_re "k") (str.to_re "l"))) (re.+ (re.union (str.to_re "mmm") (str.to_re "n")))))))))))))))
(assert (not (str.in_re var0 (re.++ (re.union (re.* (str.to_re "0")) (re.union (str.to_re "1") (str.to_re "222"))) (re.++ (re.+ (re.* (str.to_re "33"))) (re.++ (re.union (re.* (str.to_re "44")) (re.* (str.to_re "55"))) (re.++ (re.* (re.* (str.to_re "666"))) (re.++ (re.* (re.union (str.to_re "777") (str.to_re "8"))) (re.++ (re.+ (re.union (str.to_re "9") (str.to_re "aa"))) (re.++ (re.union (re.* (str.to_re "bbb")) (re.* (str.to_re "cc"))) (re.++ (re.union (re.+ (str.to_re "dd")) (re.* (str.to_re "e"))) (re.++ (re.union (re.* (str.to_re "ff")) (re.* (str.to_re "ggg"))) (re.++ (re.+ (re.union (str.to_re "hhh") (str.to_re "i"))) (re.union (re.+ (str.to_re "j")) (re.+ (str.to_re "kkk"))))))))))))))))
(check-sat)
(exit)
